p cnf 672 259
-126 0
-238 0
-30 0
-46 0
-126 0
-142 0
-158 0
-238 0
-254 0
-270 0
-30 0
-46 0
-238 0
-14 0
-30 0
-46 0
-142 0
-158 0
-238 0
-254 0
-270 0
-350 0
-366 0
-382 0
-14 0
-142 0
-158 0
-174 0
-158 0
-174 0
-190 0
-254 0
-126 0
-30 0
-46 0
-142 0
-254 0
-14 0
-254 0
-174 0
-190 0
-206 0
-270 0
-382 0
-494 0
-142 0
-126 0
-46 0
-382 0
-494 0
-606 0
-254 0
-158 0
-46 0
286 0
-494 0
-606 0
-366 0
-270 0
-158 0
-46 0
-398 0
-414 0
430 0
-606 0
-478 0
-382 0
-270 0
-158 0
-510 0
-526 0
-542 0
-526 0
-542 0
-558 0
-622 0
-494 0
-478 0
-398 0
286 0
-542 0
-558 0
638 0
-510 0
-494 0
-478 0
-414 0
-302 0
-190 0
-494 0
-478 0
286 0
-414 0
430 0
-510 0
-622 0
-382 0
-366 0
-366 0
-606 0
-590 0
-574 0
-494 0
-382 0
-270 0
-622 0
-574 0
-350 0
-366 0
-382 0
-398 0
-462 0
-478 0
-494 0
-510 0
-574 0
-606 0
-622 0
-478 0
-606 0
-622 0
-350 0
-366 0
-382 0
-462 0
-478 0
-494 0
-590 0
-606 0
-462 0
-350 0
-590 0
-606 0
-622 0
-350 0
-238 0
-254 0
-270 0
-350 0
-366 0
-382 0
-478 0
-494 0
-574 0
-590 0
-606 0
-478 0
-574 0
-238 0
-126 0
-142 0
-158 0
-238 0
-254 0
-270 0
-366 0
-382 0
-462 0
-478 0
-494 0
-574 0
-590 0
-606 0
-366 0
-462 0
-574 0
-574 0
-238 0
-254 0
-270 0
-350 0
-366 0
-382 0
-478 0
-494 0
-574 0
-590 0
-606 0
-350 0
-366 0
-382 0
-462 0
-478 0
-494 0
-590 0
-606 0
-606 0
-622 0
-350 0
-366 0
-382 0
-398 0
-462 0
-478 0
-494 0
-510 0
-574 0
-606 0
-622 0
-622 0
638 0
-606 0
-590 0
-574 0
-510 0
-398 0
286 0
-398 0
286 0
-590 0
-574 0
-382 0
-270 0
-158 0
-270 0
-158 0
-46 0
-158 0
-46 0
-46 0
-190 0
-206 0
-222 0
286 0
-158 0
-142 0
-126 0
-62 0
-206 0
-222 0
-302 0
-414 0
-526 0
-174 0
-158 0
-142 0
-78 0
-94 0
-190 0
-302 0
-414 0
-62 0
-110 0
-206 0
318 0
-78 0
-62 0
318 0
-190 0
-174 0
-158 0
-94 0
-222 0
334 0
-206 0
-190 0
-174 0
-110 0
158 0
